100 100 100
50
72 68 31
76 93 11
16 84 99
51 83 54
88 66 45
74 94 50
78 83 39
2 31 31
96 92 1
85 77 53
74 68 22
45 45 39
84 93 33
70 98 32
90 6 82
70 70 15
99 87 22
74 83 6
73 68 10
95 66 2
88 91 20
82 86 28
79 39 73
70 84 41
76 66 8
81 97 7
79 66 50
71 78 23
88 86 64
91 79 24
83 90 1
77 77 75
98 27 81
70 75 48
97 72 30
74 70 32
71 80 14
100 73 63
96 79 50
80 66 16
90 78 5
20 48 11
90 50 97
62 70 82
13 22 5
77 85 12
68 75 45
45 73 86
77 78 45
7 95 98
